% Auto-generated by scripts/generate_dzn.py
% problem_type   = regex
% instance       = regex_58
% source_json    = instances_json/1_medium_blowup/regex_58.json
% blowup         = 2.619047619047619
% representation = DFA

mode = 0;

var_count = 19;
n_constraints = 2;
Q = 42;
S = 2;
q0 = [1, 1];
F = [{27, 28, 29, 30, 31, 32, 33, 34, 35, 36, 37, 38, 39, 40, 41, 42}, {12}];
weights = [10, 3, 4, 4, 4, 6, 9, 9, 1, 10, 8, 9, 10, 5, 5, 4, 10, 2, 7];
d_dfa = array3d(1..2, 1..42, 1..2, [
  % k = 1
    1, 2,
    3, 2,
    1, 4,
    5, 6,
    7, 8,
    9, 10,
    11, 12,
    13, 14,
    11, 15,
    16, 12,
    17, 18,
    19, 18,
    20, 21,
    22, 23,
    24, 25,
    17, 26,
    27, 28,
    29, 28,
    27, 30,
    31, 32,
    33, 34,
    31, 35,
    36, 32,
    37, 38,
    39, 40,
    41, 42,
    1, 2,
    3, 2,
    1, 4,
    5, 6,
    17, 18,
    19, 18,
    20, 21,
    22, 23,
    24, 25,
    17, 26,
    11, 12,
    13, 14,
    11, 15,
    16, 12,
    7, 8,
    9, 10,

  % k = 2
    2, 1,
    3, 2,
    4, 3,
    5, 4,
    6, 5,
    7, 6,
    8, 7,
    9, 8,
    10, 9,
    11, 10,
    12, 11,
    13, 12,
    13, 13,
    0, 0,
    0, 0,
    0, 0,
    0, 0,
    0, 0,
    0, 0,
    0, 0,
    0, 0,
    0, 0,
    0, 0,
    0, 0,
    0, 0,
    0, 0,
    0, 0,
    0, 0,
    0, 0,
    0, 0,
    0, 0,
    0, 0,
    0, 0,
    0, 0,
    0, 0,
    0, 0,
    0, 0,
    0, 0,
    0, 0,
    0, 0,
    0, 0,
    0, 0
]);
d_nfa = array3d(1..2, 1..42, 1..2, [
  % k = 1
    {}, {},
    {}, {},
    {}, {},
    {}, {},
    {}, {},
    {}, {},
    {}, {},
    {}, {},
    {}, {},
    {}, {},
    {}, {},
    {}, {},
    {}, {},
    {}, {},
    {}, {},
    {}, {},
    {}, {},
    {}, {},
    {}, {},
    {}, {},
    {}, {},
    {}, {},
    {}, {},
    {}, {},
    {}, {},
    {}, {},
    {}, {},
    {}, {},
    {}, {},
    {}, {},
    {}, {},
    {}, {},
    {}, {},
    {}, {},
    {}, {},
    {}, {},
    {}, {},
    {}, {},
    {}, {},
    {}, {},
    {}, {},
    {}, {},

  % k = 2
    {}, {},
    {}, {},
    {}, {},
    {}, {},
    {}, {},
    {}, {},
    {}, {},
    {}, {},
    {}, {},
    {}, {},
    {}, {},
    {}, {},
    {}, {},
    {}, {},
    {}, {},
    {}, {},
    {}, {},
    {}, {},
    {}, {},
    {}, {},
    {}, {},
    {}, {},
    {}, {},
    {}, {},
    {}, {},
    {}, {},
    {}, {},
    {}, {},
    {}, {},
    {}, {},
    {}, {},
    {}, {},
    {}, {},
    {}, {},
    {}, {},
    {}, {},
    {}, {},
    {}, {},
    {}, {},
    {}, {},
    {}, {},
    {}, {}
]);
